JulietBench/Juliet_Based_Patch_Bench/linux/CWE-189-Numeric-Errors/CVE_2015_4001_b1bb5b49373b61bf9d2c73a4d30058ba6f069e4c/Resultoz_hcd_get_desc_cnf_SnippetNEQ.smt2
; benchmark generated from python API
(set-info :status unknown)
(declare-fun rsi () (_ BitVec 64))
(declare-fun rcx () (_ BitVec 64))
(declare-fun R () (_ BitVec 32))
(declare-fun rdx () (_ BitVec 64))
(declare-fun rdi () (_ BitVec 64))
(assert
 (let ((?x21 ((_ extract 15 0) rsi)))
 (let ((?x82 (concat (_ bv0 16) ?x21)))
 (let ((?x84 (bvmul (_ bv4294967295 32) ?x82)))
 (let ((?x11 ((_ extract 31 0) rcx)))
 (let ((?x79 (bvadd ?x11 ?x84)))
 (let (($x902 (= R ?x79)))
 (let ((?x22 ((_ extract 15 0) rdx)))
 (let ((?x29 (concat (_ bv0 16) ?x22)))
 (let (($x56 (bvule ?x11 ?x29)))
 (let ((?x16 ((_ extract 7 0) rdi)))
 (let ((?x91 (concat (_ bv0 24) ?x16)))
 (let (($x894 (bvult ?x79 ?x91)))
 (let (($x67 (and $x894 $x56 $x902)))
 (let (($x895 (= R ?x91)))
 (let (($x907 (bvuge ?x79 ?x91)))
 (let (($x72 (and $x907 $x56 $x895)))
 (let ((?x52 (bvadd ?x29 ?x84)))
 (let (($x896 (= R ?x52)))
 (let (($x66 (bvugt ?x11 ?x29)))
 (let (($x65 (bvult ?x52 ?x91)))
 (let (($x893 (and $x65 $x66 $x896)))
 (let (($x911 (bvuge ?x52 ?x91)))
 (let (($x75 (and $x911 $x66 $x895)))
 (let (($x71 (or $x75 $x893 $x72 $x67)))
 (let (($x69 (not $x71)))
 (let (($x31 (bvsle ?x11 ?x29)))
 (let (($x93 (bvslt ?x79 ?x91)))
 (let (($x897 (and $x93 $x31 $x902)))
 (let (($x742 (bvsge ?x79 ?x91)))
 (let (($x890 (and $x742 $x31 $x895)))
 (let (($x55 (bvsgt ?x11 ?x29)))
 (let (($x59 (bvslt ?x52 ?x91)))
 (let (($x889 (and $x59 $x55 $x896)))
 (let (($x881 (bvsge ?x52 ?x91)))
 (let (($x887 (and $x881 $x55 $x895)))
 (let (($x898 (or $x887 $x889 $x890 $x897)))
 (let (($x80 (not $x898)))
 (let (($x892 (and $x80 $x69)))
 (let (($x70 (and $x898 $x71)))
 (let (($x914 (or $x70 $x892)))
 (not $x914))))))))))))))))))))))))))))))))))))))))))
(check-sat)
